Maximize
  - 2.9352912020121 edge_0_1_0_0 - 3.391730503128 edge_0_3_0_0
   - 0.84686 edge_0_4_0_0 - 3.7052114620604 edge_0_5_0_0
   - 3.0565094498282 edge_0_7_0_0 - 3.21003619585 edge_0_9_0_0
   - 2.4138074486505 edge_0_12_0_0 - 2.7424885809969 edge_0_14_0_0
   - 2.7445623832935 edge_0_19_0_0 - 0.83402880571136 edge_0_22_0_0
   + 0.0357389815958474 edge_1_2_0_0 - 0.0437248550360071 edge_1_3_0_0
   - 0.034282525707136 edge_1_4_0_0 - 0.386633756792383 edge_1_5_0_0
   - 0.8924198445927265 edge_1_7_0_0 - 1.00928966454906 edge_1_9_0_0
   - 0.0881703843371662 edge_1_10_0_0 - 0.1792983617581371 edge_1_17_0_0
   - 1.073462701966361 edge_1_22_0_0 - 0.6328076092296707 edge_2_1_0_0
   - 0.0586871577993879 edge_2_4_0_0 - 0.5266106625424701 edge_2_7_0_0
   + 0.62405700124096 edge_3_1_0_0 + 3.584075979499331 edge_3_2_0_0
   + 1.722765279610742 edge_3_4_0_0 + 0.6070070438691183 edge_3_5_0_0
   + 0.1258987358361126 edge_3_6_0_0 + 0.7019599081535938 edge_3_7_0_0
   - 0.9128811827403849 edge_3_8_0_0 + 1.130147212290245 edge_3_9_0_0
   + 0.7211671722981289 edge_3_10_0_0 + 0.4673893158189914 edge_3_12_0_0
   + 0.444301285923056 edge_3_14_0_0 + 0.5098095396266878 edge_3_17_0_0
   - 0.8929114124947201 edge_3_18_0_0 + 0.2634690369023311 edge_3_19_0_0
   + 0.2217721506426395 edge_3_22_0_0 + 1.2967898443852 edge_3_23_0_0
   + 1.505080101398694 edge_4_1_0_0 + 1.166097606581363 edge_4_2_0_0
   + 2.186113344666623 edge_4_3_0_0 + 2.5158249555288 edge_4_5_0_0
   + 0.7780390194785682 edge_4_6_0_0 + 3.0683119610016 edge_4_7_0_0
   + 0.877893914393558 edge_4_8_0_0 + 2.2770186491006 edge_4_9_0_0
   + 2.016947419289 edge_4_10_0_0 + 1.102395245994 edge_4_12_0_0
   - 3.4646137936840778e-04 edge_4_13_0_0 + 1.360390234159892 edge_4_14_0_0
   + 1.206289535474929 edge_4_17_0_0 + 0.86424315410928 edge_4_18_0_0
   + 1.442946828520366 edge_4_19_0_0 + 0.00405585752555584 edge_4_20_0_0
   + 1.0273750372377 edge_4_22_0_0 + 4.7095368917036 edge_4_23_0_0
   - 0.2416409219383519 edge_5_1_0_0 - 0.1493523364973869 edge_5_3_0_0
   + 0.5923717285327601 edge_5_4_0_0 + 0.1214281217898127 edge_5_6_0_0
   + 0.32329681406116 edge_5_7_0_0 + 0.5679384625073246 edge_5_9_0_0
   + 0.394556343018962 edge_5_10_0_0 - 0.336757090659327 edge_5_12_0_0
   - 0.8060030561696171 edge_5_13_0_0 - 0.4804657943972949 edge_5_14_0_0
   - 0.8371916284259894 edge_5_17_0_0 + 0.4086593426155939 edge_5_18_0_0
   - 0.4059374363912546 edge_5_19_0_0 - 0.5198778739445293 edge_5_22_0_0
   + 0.8779166916806411 edge_5_23_0_0 - 0.633681528876891 edge_6_1_0_0
   - 0.43145185513648 edge_6_3_0_0 - 0.9468773414306457 edge_6_4_0_0
   + 0.4255402661676088 edge_6_5_0_0 + 1.319207321513 edge_6_7_0_0
   + 0.5004570203201095 edge_6_8_0_0 + 0.2819330113429557 edge_6_9_0_0
   + 0.0375278427700983 edge_6_10_0_0 - 0.2884326239632677 edge_6_12_0_0
   - 0.3247815244621924 edge_6_14_0_0 - 1.076549057406115 edge_6_19_0_0
   - 0.4088750781329427 edge_7_1_0_0 - 0.018134705732374 edge_7_2_0_0
   - 0.2326661604547136 edge_7_3_0_0 + 0.25217633929626 edge_7_4_0_0
   + 0.24473889658748 edge_7_5_0_0 + 3.5133612389504 edge_7_6_0_0
   + 1.0213644998554 edge_7_8_0_0 + 2.342778752229691 edge_7_9_0_0
   + 1.7728815272844 edge_7_10_0_0 + 1.390756648608 edge_7_12_0_0
   - 0.3468669160467 edge_7_13_0_0 + 1.1098398668192 edge_7_14_0_0
   + 1.285344369408 edge_7_17_0_0 + 1.3795976486064 edge_7_18_0_0
   + 1.1142075375959 edge_7_19_0_0 + 0.19516269749735 edge_7_22_0_0
   + 0.3482105513579895 edge_7_23_0_0 + 0.1844497791780549 edge_8_5_0_0
   + 0.2870424910893404 edge_8_6_0_0 + 0.018512662201593 edge_8_7_0_0
   + 1.202158120305908 edge_8_9_0_0 + 0.1713329291485261 edge_8_10_0_0
   - 0.0466664993789411 edge_8_12_0_0 - 0.2208529535965424 edge_8_14_0_0
   + 0.0257805547391585 edge_9_1_0_0 - 0.2030004938972529 edge_9_2_0_0
   - 0.16438748688874 edge_9_3_0_0 + 0.50703931359546 edge_9_4_0_0
   + 0.3367622822498947 edge_9_5_0_0 + 1.930064209535699 edge_9_6_0_0
   + 1.379187076054081 edge_9_7_0_0 + 3.183927609941055 edge_9_8_0_0
   + 1.98797597711718 edge_9_10_0_0 + 1.863102751288284 edge_9_12_0_0
   + 0.0378113576020226 edge_9_13_0_0 + 1.662729069152456 edge_9_14_0_0
   + 0.9775271277931687 edge_9_17_0_0 + 1.238458269936245 edge_9_18_0_0
   + 0.6602854652642953 edge_9_19_0_0 + 1.322341528077122 edge_9_22_0_0
   + 1.594095998177747 edge_9_23_0_0 - 0.7514581369055481 edge_10_9_0_0
   + 0.1462856480120595 edge_10_12_0_0 + 0.1668647686017608 edge_10_13_0_0
   + 0.3620636559062467 edge_10_14_0_0 - 0.8970028363688501 edge_10_17_0_0
   - 0.2289688314936897 edge_10_18_0_0 - 0.6590703992251528 edge_12_1_0_0
   - 1.100157977603443 edge_12_2_0_0 - 0.4370407519231034 edge_12_3_0_0
   - 0.3944641795987417 edge_12_4_0_0 - 0.1586756386455794 edge_12_5_0_0
   + 0.6324536380202183 edge_12_6_0_0 - 0.1411276451616 edge_12_7_0_0
   + 1.097148585480021 edge_12_8_0_0 + 0.2151029220858239 edge_12_9_0_0
   + 2.521229082091725 edge_12_10_0_0 + 3.106315825523351 edge_12_13_0_0
   + 3.499664796146592 edge_12_14_0_0 + 2.007329178197292 edge_12_17_0_0
   + 2.646095004043701 edge_12_18_0_0 + 2.577670666659804 edge_12_19_0_0
   - 0.1710988299701437 edge_12_20_0_0 - 0.4153403162912628 edge_12_21_0_0
   + 1.258765964621731 edge_12_22_0_0 + 1.057329849536 edge_12_23_0_0
   - 0.5702520154670667 edge_13_10_0_0 + 0.6073303300245676 edge_13_14_0_0
   + 0.3472022913053081 edge_13_17_0_0 + 0.0929290766016768 edge_13_19_0_0
   - 1.214488758694111 edge_13_20_0_0 - 0.2833407312570058 edge_13_22_0_0
   - 0.8035414351430982 edge_14_1_0_0 - 0.4118146306094156 edge_14_3_0_0
   - 0.0883516579158218 edge_14_4_0_0 - 0.1715068250201353 edge_14_5_0_0
   + 0.6866738930454704 edge_14_6_0_0 - 0.2065203498895103 edge_14_7_0_0
   + 0.3772165051304739 edge_14_8_0_0 + 0.2614415443646014 edge_14_9_0_0
   + 1.28336291793793 edge_14_10_0_0 + 2.519714043867023 edge_14_12_0_0
   + 3.152248945564881 edge_14_13_0_0 + 1.820834439663041 edge_14_17_0_0
   + 1.404289871346716 edge_14_18_0_0 + 1.873511255180106 edge_14_19_0_0
   + 0.0211722199164853 edge_14_20_0_0 + 1.166105953342176 edge_14_22_0_0
   + 0.8374168377685175 edge_14_23_0_0 - 1.076554456711527 edge_17_14_0_0
   - 0.2667445047326377 edge_17_19_0_0 - 0.5787259996774401 edge_17_23_0_0
   + 0.5915809150261406 edge_18_19_0_0 - 0.4644867740332466 edge_18_22_0_0
   - 0.9286589628238553 edge_19_1_0_0 - 1.05542119113939 edge_19_3_0_0
   - 0.7323003314573946 edge_19_4_0_0 - 0.7390164657787325 edge_19_5_0_0
   - 1.093848471076982 edge_19_6_0_0 - 0.63816958964209 edge_19_7_0_0
   - 0.6936545914210827 edge_19_9_0_0 + 0.3125754263764385 edge_19_10_0_0
   + 0.7109192251551328 edge_19_12_0_0 + 1.082403627296151 edge_19_13_0_0
   + 0.8434171286999601 edge_19_14_0_0 + 1.087377929439127 edge_19_17_0_0
   - 0.00304787438227861 edge_19_18_0_0 + 0.7083837827297513 edge_19_20_0_0
   + 0.3232272930018151 edge_19_21_0_0 + 3.184578025952509 edge_19_22_0_0
   + 1.1925673644203 edge_19_23_0_0 + 1.050699223825279 edge_20_22_0_0
   - 0.14378702299 edge_20_23_0_0 - 0.3624675749917492 edge_21_19_0_0
   - 0.4832353036410628 edge_21_20_0_0 - 0.1815273221655654 edge_22_1_0_0
   + 0.5915820673444535 edge_22_3_0_0 + 1.789265224901669 edge_22_4_0_0
   + 0.8629576294417911 edge_22_5_0_0 - 0.4345263192217904 edge_22_6_0_0
   + 0.6251594018095273 edge_22_7_0_0 - 0.2785733023351712 edge_22_8_0_0
   + 0.5400226956416867 edge_22_9_0_0 + 0.1357250642759332 edge_22_10_0_0
   + 0.587056904576193 edge_22_12_0_0 + 0.3506458424154265 edge_22_13_0_0
   + 1.10228687893784 edge_22_14_0_0 + 0.9108856099584036 edge_22_17_0_0
   + 0.2000134552192072 edge_22_18_0_0 + 2.775690810630265 edge_22_19_0_0
   + 2.9486316256188 edge_22_20_0_0 + 3.493023473682263 edge_22_21_0_0
   + 2.031816585375839 edge_22_23_0_0
Subject To
 one_parent_1: edge_0_1_0_0 + edge_2_1_0_0 + edge_3_1_0_0 + edge_4_1_0_0
   + edge_5_1_0_0 + edge_6_1_0_0 + edge_7_1_0_0 + edge_9_1_0_0
   + edge_12_1_0_0 + edge_14_1_0_0 + edge_19_1_0_0 + edge_22_1_0_0 = 1
 consume_one_flow_unit_1: flow_0_1_0_0 - flow_1_2_0_0 - flow_1_3_0_0
   - flow_1_4_0_0 - flow_1_5_0_0 - flow_1_7_0_0 - flow_1_9_0_0
   - flow_1_10_0_0 - flow_1_17_0_0 - flow_1_22_0_0 + flow_2_1_0_0
   + flow_3_1_0_0 + flow_4_1_0_0 + flow_5_1_0_0 + flow_6_1_0_0
   + flow_7_1_0_0 + flow_9_1_0_0 + flow_12_1_0_0 + flow_14_1_0_0
   + flow_19_1_0_0 + flow_22_1_0_0 = 1
 one_parent_2: edge_1_2_0_0 + edge_3_2_0_0 + edge_4_2_0_0 + edge_7_2_0_0
   + edge_9_2_0_0 + edge_12_2_0_0 = 1
 consume_one_flow_unit_2: flow_1_2_0_0 - flow_2_1_0_0 - flow_2_4_0_0
   - flow_2_7_0_0 + flow_3_2_0_0 + flow_4_2_0_0 + flow_7_2_0_0
   + flow_9_2_0_0 + flow_12_2_0_0 = 1
 one_parent_3: edge_0_3_0_0 + edge_1_3_0_0 + edge_4_3_0_0 + edge_5_3_0_0
   + edge_6_3_0_0 + edge_7_3_0_0 + edge_9_3_0_0 + edge_12_3_0_0
   + edge_14_3_0_0 + edge_19_3_0_0 + edge_22_3_0_0 = 1
 consume_one_flow_unit_3: flow_0_3_0_0 + flow_1_3_0_0 - flow_3_1_0_0
   - flow_3_2_0_0 - flow_3_4_0_0 - flow_3_5_0_0 - flow_3_6_0_0
   - flow_3_7_0_0 - flow_3_8_0_0 - flow_3_9_0_0 - flow_3_10_0_0
   - flow_3_12_0_0 - flow_3_14_0_0 - flow_3_17_0_0 - flow_3_18_0_0
   - flow_3_19_0_0 - flow_3_22_0_0 - flow_3_23_0_0 + flow_4_3_0_0
   + flow_5_3_0_0 + flow_6_3_0_0 + flow_7_3_0_0 + flow_9_3_0_0
   + flow_12_3_0_0 + flow_14_3_0_0 + flow_19_3_0_0 + flow_22_3_0_0 = 1
 one_parent_4: edge_0_4_0_0 + edge_1_4_0_0 + edge_2_4_0_0 + edge_3_4_0_0
   + edge_5_4_0_0 + edge_6_4_0_0 + edge_7_4_0_0 + edge_9_4_0_0
   + edge_12_4_0_0 + edge_14_4_0_0 + edge_19_4_0_0 + edge_22_4_0_0 = 1
 consume_one_flow_unit_4: flow_0_4_0_0 + flow_1_4_0_0 + flow_2_4_0_0
   + flow_3_4_0_0 - flow_4_1_0_0 - flow_4_2_0_0 - flow_4_3_0_0
   - flow_4_5_0_0 - flow_4_6_0_0 - flow_4_7_0_0 - flow_4_8_0_0
   - flow_4_9_0_0 - flow_4_10_0_0 - flow_4_12_0_0 - flow_4_13_0_0
   - flow_4_14_0_0 - flow_4_17_0_0 - flow_4_18_0_0 - flow_4_19_0_0
   - flow_4_20_0_0 - flow_4_22_0_0 - flow_4_23_0_0 + flow_5_4_0_0
   + flow_6_4_0_0 + flow_7_4_0_0 + flow_9_4_0_0 + flow_12_4_0_0
   + flow_14_4_0_0 + flow_19_4_0_0 + flow_22_4_0_0 = 1
 one_parent_5: edge_0_5_0_0 + edge_1_5_0_0 + edge_3_5_0_0 + edge_4_5_0_0
   + edge_6_5_0_0 + edge_7_5_0_0 + edge_8_5_0_0 + edge_9_5_0_0
   + edge_12_5_0_0 + edge_14_5_0_0 + edge_19_5_0_0 + edge_22_5_0_0 = 1
 consume_one_flow_unit_5: flow_0_5_0_0 + flow_1_5_0_0 + flow_3_5_0_0
   + flow_4_5_0_0 - flow_5_1_0_0 - flow_5_3_0_0 - flow_5_4_0_0
   - flow_5_6_0_0 - flow_5_7_0_0 - flow_5_9_0_0 - flow_5_10_0_0
   - flow_5_12_0_0 - flow_5_13_0_0 - flow_5_14_0_0 - flow_5_17_0_0
   - flow_5_18_0_0 - flow_5_19_0_0 - flow_5_22_0_0 - flow_5_23_0_0
   + flow_6_5_0_0 + flow_7_5_0_0 + flow_8_5_0_0 + flow_9_5_0_0
   + flow_12_5_0_0 + flow_14_5_0_0 + flow_19_5_0_0 + flow_22_5_0_0 = 1
 one_parent_6: edge_3_6_0_0 + edge_4_6_0_0 + edge_5_6_0_0 + edge_7_6_0_0
   + edge_8_6_0_0 + edge_9_6_0_0 + edge_12_6_0_0 + edge_14_6_0_0
   + edge_19_6_0_0 + edge_22_6_0_0 = 1
 consume_one_flow_unit_6: flow_3_6_0_0 + flow_4_6_0_0 + flow_5_6_0_0
   - flow_6_1_0_0 - flow_6_3_0_0 - flow_6_4_0_0 - flow_6_5_0_0
   - flow_6_7_0_0 - flow_6_8_0_0 - flow_6_9_0_0 - flow_6_10_0_0
   - flow_6_12_0_0 - flow_6_14_0_0 - flow_6_19_0_0 + flow_7_6_0_0
   + flow_8_6_0_0 + flow_9_6_0_0 + flow_12_6_0_0 + flow_14_6_0_0
   + flow_19_6_0_0 + flow_22_6_0_0 = 1
 one_parent_7: edge_0_7_0_0 + edge_1_7_0_0 + edge_2_7_0_0 + edge_3_7_0_0
   + edge_4_7_0_0 + edge_5_7_0_0 + edge_6_7_0_0 + edge_8_7_0_0
   + edge_9_7_0_0 + edge_12_7_0_0 + edge_14_7_0_0 + edge_19_7_0_0
   + edge_22_7_0_0 = 1
 consume_one_flow_unit_7: flow_0_7_0_0 + flow_1_7_0_0 + flow_2_7_0_0
   + flow_3_7_0_0 + flow_4_7_0_0 + flow_5_7_0_0 + flow_6_7_0_0
   - flow_7_1_0_0 - flow_7_2_0_0 - flow_7_3_0_0 - flow_7_4_0_0
   - flow_7_5_0_0 - flow_7_6_0_0 - flow_7_8_0_0 - flow_7_9_0_0
   - flow_7_10_0_0 - flow_7_12_0_0 - flow_7_13_0_0 - flow_7_14_0_0
   - flow_7_17_0_0 - flow_7_18_0_0 - flow_7_19_0_0 - flow_7_22_0_0
   - flow_7_23_0_0 + flow_8_7_0_0 + flow_9_7_0_0 + flow_12_7_0_0
   + flow_14_7_0_0 + flow_19_7_0_0 + flow_22_7_0_0 = 1
 one_parent_8: edge_3_8_0_0 + edge_4_8_0_0 + edge_6_8_0_0 + edge_7_8_0_0
   + edge_9_8_0_0 + edge_12_8_0_0 + edge_14_8_0_0 + edge_22_8_0_0 = 1
 consume_one_flow_unit_8: flow_3_8_0_0 + flow_4_8_0_0 + flow_6_8_0_0
   + flow_7_8_0_0 - flow_8_5_0_0 - flow_8_6_0_0 - flow_8_7_0_0
   - flow_8_9_0_0 - flow_8_10_0_0 - flow_8_12_0_0 - flow_8_14_0_0
   + flow_9_8_0_0 + flow_12_8_0_0 + flow_14_8_0_0 + flow_22_8_0_0 = 1
 one_parent_9: edge_0_9_0_0 + edge_1_9_0_0 + edge_3_9_0_0 + edge_4_9_0_0
   + edge_5_9_0_0 + edge_6_9_0_0 + edge_7_9_0_0 + edge_8_9_0_0
   + edge_10_9_0_0 + edge_12_9_0_0 + edge_14_9_0_0 + edge_19_9_0_0
   + edge_22_9_0_0 = 1
 consume_one_flow_unit_9: flow_0_9_0_0 + flow_1_9_0_0 + flow_3_9_0_0
   + flow_4_9_0_0 + flow_5_9_0_0 + flow_6_9_0_0 + flow_7_9_0_0
   + flow_8_9_0_0 - flow_9_1_0_0 - flow_9_2_0_0 - flow_9_3_0_0
   - flow_9_4_0_0 - flow_9_5_0_0 - flow_9_6_0_0 - flow_9_7_0_0
   - flow_9_8_0_0 - flow_9_10_0_0 - flow_9_12_0_0 - flow_9_13_0_0
   - flow_9_14_0_0 - flow_9_17_0_0 - flow_9_18_0_0 - flow_9_19_0_0
   - flow_9_22_0_0 - flow_9_23_0_0 + flow_10_9_0_0 + flow_12_9_0_0
   + flow_14_9_0_0 + flow_19_9_0_0 + flow_22_9_0_0 = 1
 one_parent_10: edge_1_10_0_0 + edge_3_10_0_0 + edge_4_10_0_0
   + edge_5_10_0_0 + edge_6_10_0_0 + edge_7_10_0_0 + edge_8_10_0_0
   + edge_9_10_0_0 + edge_12_10_0_0 + edge_13_10_0_0 + edge_14_10_0_0
   + edge_19_10_0_0 + edge_22_10_0_0 = 1
 consume_one_flow_unit_10: flow_1_10_0_0 + flow_3_10_0_0 + flow_4_10_0_0
   + flow_5_10_0_0 + flow_6_10_0_0 + flow_7_10_0_0 + flow_8_10_0_0
   + flow_9_10_0_0 - flow_10_9_0_0 - flow_10_12_0_0 - flow_10_13_0_0
   - flow_10_14_0_0 - flow_10_17_0_0 - flow_10_18_0_0 + flow_12_10_0_0
   + flow_13_10_0_0 + flow_14_10_0_0 + flow_19_10_0_0 + flow_22_10_0_0 = 1
 one_parent_11: = 1
 consume_one_flow_unit_11: = 1
 one_parent_12: edge_0_12_0_0 + edge_3_12_0_0 + edge_4_12_0_0
   + edge_5_12_0_0 + edge_6_12_0_0 + edge_7_12_0_0 + edge_8_12_0_0
   + edge_9_12_0_0 + edge_10_12_0_0 + edge_14_12_0_0 + edge_19_12_0_0
   + edge_22_12_0_0 = 1
 consume_one_flow_unit_12: flow_0_12_0_0 + flow_3_12_0_0 + flow_4_12_0_0
   + flow_5_12_0_0 + flow_6_12_0_0 + flow_7_12_0_0 + flow_8_12_0_0
   + flow_9_12_0_0 + flow_10_12_0_0 - flow_12_1_0_0 - flow_12_2_0_0
   - flow_12_3_0_0 - flow_12_4_0_0 - flow_12_5_0_0 - flow_12_6_0_0
   - flow_12_7_0_0 - flow_12_8_0_0 - flow_12_9_0_0 - flow_12_10_0_0
   - flow_12_13_0_0 - flow_12_14_0_0 - flow_12_17_0_0 - flow_12_18_0_0
   - flow_12_19_0_0 - flow_12_20_0_0 - flow_12_21_0_0 - flow_12_22_0_0
   - flow_12_23_0_0 + flow_14_12_0_0 + flow_19_12_0_0 + flow_22_12_0_0 = 1
 one_parent_13: edge_4_13_0_0 + edge_5_13_0_0 + edge_7_13_0_0
   + edge_9_13_0_0 + edge_10_13_0_0 + edge_12_13_0_0 + edge_14_13_0_0
   + edge_19_13_0_0 + edge_22_13_0_0 = 1
 consume_one_flow_unit_13: flow_4_13_0_0 + flow_5_13_0_0 + flow_7_13_0_0
   + flow_9_13_0_0 + flow_10_13_0_0 + flow_12_13_0_0 - flow_13_10_0_0
   - flow_13_14_0_0 - flow_13_17_0_0 - flow_13_19_0_0 - flow_13_20_0_0
   - flow_13_22_0_0 + flow_14_13_0_0 + flow_19_13_0_0 + flow_22_13_0_0 = 1
 one_parent_14: edge_0_14_0_0 + edge_3_14_0_0 + edge_4_14_0_0
   + edge_5_14_0_0 + edge_6_14_0_0 + edge_7_14_0_0 + edge_8_14_0_0
   + edge_9_14_0_0 + edge_10_14_0_0 + edge_12_14_0_0 + edge_13_14_0_0
   + edge_17_14_0_0 + edge_19_14_0_0 + edge_22_14_0_0 = 1
 consume_one_flow_unit_14: flow_0_14_0_0 + flow_3_14_0_0 + flow_4_14_0_0
   + flow_5_14_0_0 + flow_6_14_0_0 + flow_7_14_0_0 + flow_8_14_0_0
   + flow_9_14_0_0 + flow_10_14_0_0 + flow_12_14_0_0 + flow_13_14_0_0
   - flow_14_1_0_0 - flow_14_3_0_0 - flow_14_4_0_0 - flow_14_5_0_0
   - flow_14_6_0_0 - flow_14_7_0_0 - flow_14_8_0_0 - flow_14_9_0_0
   - flow_14_10_0_0 - flow_14_12_0_0 - flow_14_13_0_0 - flow_14_17_0_0
   - flow_14_18_0_0 - flow_14_19_0_0 - flow_14_20_0_0 - flow_14_22_0_0
   - flow_14_23_0_0 + flow_17_14_0_0 + flow_19_14_0_0 + flow_22_14_0_0 = 1
 one_parent_15: = 1
 consume_one_flow_unit_15: = 1
 one_parent_16: = 1
 consume_one_flow_unit_16: = 1
 one_parent_17: edge_1_17_0_0 + edge_3_17_0_0 + edge_4_17_0_0
   + edge_5_17_0_0 + edge_7_17_0_0 + edge_9_17_0_0 + edge_10_17_0_0
   + edge_12_17_0_0 + edge_13_17_0_0 + edge_14_17_0_0 + edge_19_17_0_0
   + edge_22_17_0_0 = 1
 consume_one_flow_unit_17: flow_1_17_0_0 + flow_3_17_0_0 + flow_4_17_0_0
   + flow_5_17_0_0 + flow_7_17_0_0 + flow_9_17_0_0 + flow_10_17_0_0
   + flow_12_17_0_0 + flow_13_17_0_0 + flow_14_17_0_0 - flow_17_14_0_0
   - flow_17_19_0_0 - flow_17_23_0_0 + flow_19_17_0_0 + flow_22_17_0_0 = 1
 one_parent_18: edge_3_18_0_0 + edge_4_18_0_0 + edge_5_18_0_0
   + edge_7_18_0_0 + edge_9_18_0_0 + edge_10_18_0_0 + edge_12_18_0_0
   + edge_14_18_0_0 + edge_19_18_0_0 + edge_22_18_0_0 = 1
 consume_one_flow_unit_18: flow_3_18_0_0 + flow_4_18_0_0 + flow_5_18_0_0
   + flow_7_18_0_0 + flow_9_18_0_0 + flow_10_18_0_0 + flow_12_18_0_0
   + flow_14_18_0_0 - flow_18_19_0_0 - flow_18_22_0_0 + flow_19_18_0_0
   + flow_22_18_0_0 = 1
 one_parent_19: edge_0_19_0_0 + edge_3_19_0_0 + edge_4_19_0_0
   + edge_5_19_0_0 + edge_6_19_0_0 + edge_7_19_0_0 + edge_9_19_0_0
   + edge_12_19_0_0 + edge_13_19_0_0 + edge_14_19_0_0 + edge_17_19_0_0
   + edge_18_19_0_0 + edge_21_19_0_0 + edge_22_19_0_0 = 1
 consume_one_flow_unit_19: flow_0_19_0_0 + flow_3_19_0_0 + flow_4_19_0_0
   + flow_5_19_0_0 + flow_6_19_0_0 + flow_7_19_0_0 + flow_9_19_0_0
   + flow_12_19_0_0 + flow_13_19_0_0 + flow_14_19_0_0 + flow_17_19_0_0
   + flow_18_19_0_0 - flow_19_1_0_0 - flow_19_3_0_0 - flow_19_4_0_0
   - flow_19_5_0_0 - flow_19_6_0_0 - flow_19_7_0_0 - flow_19_9_0_0
   - flow_19_10_0_0 - flow_19_12_0_0 - flow_19_13_0_0 - flow_19_14_0_0
   - flow_19_17_0_0 - flow_19_18_0_0 - flow_19_20_0_0 - flow_19_21_0_0
   - flow_19_22_0_0 - flow_19_23_0_0 + flow_21_19_0_0 + flow_22_19_0_0 = 1
 one_parent_20: edge_4_20_0_0 + edge_12_20_0_0 + edge_13_20_0_0
   + edge_14_20_0_0 + edge_19_20_0_0 + edge_21_20_0_0 + edge_22_20_0_0 = 1
 consume_one_flow_unit_20: flow_4_20_0_0 + flow_12_20_0_0 + flow_13_20_0_0
   + flow_14_20_0_0 + flow_19_20_0_0 - flow_20_22_0_0 - flow_20_23_0_0
   + flow_21_20_0_0 + flow_22_20_0_0 = 1
 one_parent_21: edge_12_21_0_0 + edge_19_21_0_0 + edge_22_21_0_0 = 1
 consume_one_flow_unit_21: flow_12_21_0_0 + flow_19_21_0_0 - flow_21_19_0_0
   - flow_21_20_0_0 + flow_22_21_0_0 = 1
 one_parent_22: edge_0_22_0_0 + edge_1_22_0_0 + edge_3_22_0_0
   + edge_4_22_0_0 + edge_5_22_0_0 + edge_7_22_0_0 + edge_9_22_0_0
   + edge_12_22_0_0 + edge_13_22_0_0 + edge_14_22_0_0 + edge_18_22_0_0
   + edge_19_22_0_0 + edge_20_22_0_0 = 1
 consume_one_flow_unit_22: flow_0_22_0_0 + flow_1_22_0_0 + flow_3_22_0_0
   + flow_4_22_0_0 + flow_5_22_0_0 + flow_7_22_0_0 + flow_9_22_0_0
   + flow_12_22_0_0 + flow_13_22_0_0 + flow_14_22_0_0 + flow_18_22_0_0
   + flow_19_22_0_0 + flow_20_22_0_0 - flow_22_1_0_0 - flow_22_3_0_0
   - flow_22_4_0_0 - flow_22_5_0_0 - flow_22_6_0_0 - flow_22_7_0_0
   - flow_22_8_0_0 - flow_22_9_0_0 - flow_22_10_0_0 - flow_22_12_0_0
   - flow_22_13_0_0 - flow_22_14_0_0 - flow_22_17_0_0 - flow_22_18_0_0
   - flow_22_19_0_0 - flow_22_20_0_0 - flow_22_21_0_0 - flow_22_23_0_0 = 1
 one_parent_23: edge_3_23_0_0 + edge_4_23_0_0 + edge_5_23_0_0
   + edge_7_23_0_0 + edge_9_23_0_0 + edge_12_23_0_0 + edge_14_23_0_0
   + edge_17_23_0_0 + edge_19_23_0_0 + edge_20_23_0_0 + edge_22_23_0_0 = 1
 consume_one_flow_unit_23: flow_3_23_0_0 + flow_4_23_0_0 + flow_5_23_0_0
   + flow_7_23_0_0 + flow_9_23_0_0 + flow_12_23_0_0 + flow_14_23_0_0
   + flow_17_23_0_0 + flow_19_23_0_0 + flow_20_23_0_0 + flow_22_23_0_0 = 1
 root_flow: flow_0_1_0_0 + flow_0_3_0_0 + flow_0_4_0_0 + flow_0_5_0_0
   + flow_0_7_0_0 + flow_0_9_0_0 + flow_0_12_0_0 + flow_0_14_0_0
   + flow_0_19_0_0 + flow_0_22_0_0 = 23
 inactive_no_flow_0_1_0_0: flow_0_1_0_0 - 1000 edge_0_1_0_0 <= 0
 inactive_no_flow_0_3_0_0: flow_0_3_0_0 - 1000 edge_0_3_0_0 <= 0
 inactive_no_flow_0_4_0_0: flow_0_4_0_0 - 1000 edge_0_4_0_0 <= 0
 inactive_no_flow_0_5_0_0: flow_0_5_0_0 - 1000 edge_0_5_0_0 <= 0
 inactive_no_flow_0_7_0_0: flow_0_7_0_0 - 1000 edge_0_7_0_0 <= 0
 inactive_no_flow_0_9_0_0: flow_0_9_0_0 - 1000 edge_0_9_0_0 <= 0
 inactive_no_flow_0_12_0_0: flow_0_12_0_0 - 1000 edge_0_12_0_0 <= 0
 inactive_no_flow_0_14_0_0: flow_0_14_0_0 - 1000 edge_0_14_0_0 <= 0
 inactive_no_flow_0_19_0_0: flow_0_19_0_0 - 1000 edge_0_19_0_0 <= 0
 inactive_no_flow_0_22_0_0: flow_0_22_0_0 - 1000 edge_0_22_0_0 <= 0
 inactive_no_flow_1_2_0_0: flow_1_2_0_0 - 1000 edge_1_2_0_0 <= 0
 inactive_no_flow_1_3_0_0: flow_1_3_0_0 - 1000 edge_1_3_0_0 <= 0
 inactive_no_flow_1_4_0_0: flow_1_4_0_0 - 1000 edge_1_4_0_0 <= 0
 inactive_no_flow_1_5_0_0: flow_1_5_0_0 - 1000 edge_1_5_0_0 <= 0
 inactive_no_flow_1_7_0_0: flow_1_7_0_0 - 1000 edge_1_7_0_0 <= 0
 inactive_no_flow_1_9_0_0: flow_1_9_0_0 - 1000 edge_1_9_0_0 <= 0
 inactive_no_flow_1_10_0_0: flow_1_10_0_0 - 1000 edge_1_10_0_0 <= 0
 inactive_no_flow_1_17_0_0: flow_1_17_0_0 - 1000 edge_1_17_0_0 <= 0
 inactive_no_flow_1_22_0_0: flow_1_22_0_0 - 1000 edge_1_22_0_0 <= 0
 inactive_no_flow_2_1_0_0: flow_2_1_0_0 - 1000 edge_2_1_0_0 <= 0
 inactive_no_flow_2_4_0_0: flow_2_4_0_0 - 1000 edge_2_4_0_0 <= 0
 inactive_no_flow_2_7_0_0: flow_2_7_0_0 - 1000 edge_2_7_0_0 <= 0
 inactive_no_flow_3_1_0_0: flow_3_1_0_0 - 1000 edge_3_1_0_0 <= 0
 inactive_no_flow_3_2_0_0: flow_3_2_0_0 - 1000 edge_3_2_0_0 <= 0
 inactive_no_flow_3_4_0_0: flow_3_4_0_0 - 1000 edge_3_4_0_0 <= 0
 inactive_no_flow_3_5_0_0: flow_3_5_0_0 - 1000 edge_3_5_0_0 <= 0
 inactive_no_flow_3_6_0_0: flow_3_6_0_0 - 1000 edge_3_6_0_0 <= 0
 inactive_no_flow_3_7_0_0: flow_3_7_0_0 - 1000 edge_3_7_0_0 <= 0
 inactive_no_flow_3_8_0_0: flow_3_8_0_0 - 1000 edge_3_8_0_0 <= 0
 inactive_no_flow_3_9_0_0: flow_3_9_0_0 - 1000 edge_3_9_0_0 <= 0
 inactive_no_flow_3_10_0_0: flow_3_10_0_0 - 1000 edge_3_10_0_0 <= 0
 inactive_no_flow_3_12_0_0: flow_3_12_0_0 - 1000 edge_3_12_0_0 <= 0
 inactive_no_flow_3_14_0_0: flow_3_14_0_0 - 1000 edge_3_14_0_0 <= 0
 inactive_no_flow_3_17_0_0: flow_3_17_0_0 - 1000 edge_3_17_0_0 <= 0
 inactive_no_flow_3_18_0_0: flow_3_18_0_0 - 1000 edge_3_18_0_0 <= 0
 inactive_no_flow_3_19_0_0: flow_3_19_0_0 - 1000 edge_3_19_0_0 <= 0
 inactive_no_flow_3_22_0_0: flow_3_22_0_0 - 1000 edge_3_22_0_0 <= 0
 inactive_no_flow_3_23_0_0: flow_3_23_0_0 - 1000 edge_3_23_0_0 <= 0
 inactive_no_flow_4_1_0_0: flow_4_1_0_0 - 1000 edge_4_1_0_0 <= 0
 inactive_no_flow_4_2_0_0: flow_4_2_0_0 - 1000 edge_4_2_0_0 <= 0
 inactive_no_flow_4_3_0_0: flow_4_3_0_0 - 1000 edge_4_3_0_0 <= 0
 inactive_no_flow_4_5_0_0: flow_4_5_0_0 - 1000 edge_4_5_0_0 <= 0
 inactive_no_flow_4_6_0_0: flow_4_6_0_0 - 1000 edge_4_6_0_0 <= 0
 inactive_no_flow_4_7_0_0: flow_4_7_0_0 - 1000 edge_4_7_0_0 <= 0
 inactive_no_flow_4_8_0_0: flow_4_8_0_0 - 1000 edge_4_8_0_0 <= 0
 inactive_no_flow_4_9_0_0: flow_4_9_0_0 - 1000 edge_4_9_0_0 <= 0
 inactive_no_flow_4_10_0_0: flow_4_10_0_0 - 1000 edge_4_10_0_0 <= 0
 inactive_no_flow_4_12_0_0: flow_4_12_0_0 - 1000 edge_4_12_0_0 <= 0
 inactive_no_flow_4_13_0_0: flow_4_13_0_0 - 1000 edge_4_13_0_0 <= 0
 inactive_no_flow_4_14_0_0: flow_4_14_0_0 - 1000 edge_4_14_0_0 <= 0
 inactive_no_flow_4_17_0_0: flow_4_17_0_0 - 1000 edge_4_17_0_0 <= 0
 inactive_no_flow_4_18_0_0: flow_4_18_0_0 - 1000 edge_4_18_0_0 <= 0
 inactive_no_flow_4_19_0_0: flow_4_19_0_0 - 1000 edge_4_19_0_0 <= 0
 inactive_no_flow_4_20_0_0: flow_4_20_0_0 - 1000 edge_4_20_0_0 <= 0
 inactive_no_flow_4_22_0_0: flow_4_22_0_0 - 1000 edge_4_22_0_0 <= 0
 inactive_no_flow_4_23_0_0: flow_4_23_0_0 - 1000 edge_4_23_0_0 <= 0
 inactive_no_flow_5_1_0_0: flow_5_1_0_0 - 1000 edge_5_1_0_0 <= 0
 inactive_no_flow_5_3_0_0: flow_5_3_0_0 - 1000 edge_5_3_0_0 <= 0
 inactive_no_flow_5_4_0_0: flow_5_4_0_0 - 1000 edge_5_4_0_0 <= 0
 inactive_no_flow_5_6_0_0: flow_5_6_0_0 - 1000 edge_5_6_0_0 <= 0
 inactive_no_flow_5_7_0_0: flow_5_7_0_0 - 1000 edge_5_7_0_0 <= 0
 inactive_no_flow_5_9_0_0: flow_5_9_0_0 - 1000 edge_5_9_0_0 <= 0
 inactive_no_flow_5_10_0_0: flow_5_10_0_0 - 1000 edge_5_10_0_0 <= 0
 inactive_no_flow_5_12_0_0: flow_5_12_0_0 - 1000 edge_5_12_0_0 <= 0
 inactive_no_flow_5_13_0_0: flow_5_13_0_0 - 1000 edge_5_13_0_0 <= 0
 inactive_no_flow_5_14_0_0: flow_5_14_0_0 - 1000 edge_5_14_0_0 <= 0
 inactive_no_flow_5_17_0_0: flow_5_17_0_0 - 1000 edge_5_17_0_0 <= 0
 inactive_no_flow_5_18_0_0: flow_5_18_0_0 - 1000 edge_5_18_0_0 <= 0
 inactive_no_flow_5_19_0_0: flow_5_19_0_0 - 1000 edge_5_19_0_0 <= 0
 inactive_no_flow_5_22_0_0: flow_5_22_0_0 - 1000 edge_5_22_0_0 <= 0
 inactive_no_flow_5_23_0_0: flow_5_23_0_0 - 1000 edge_5_23_0_0 <= 0
 inactive_no_flow_6_1_0_0: flow_6_1_0_0 - 1000 edge_6_1_0_0 <= 0
 inactive_no_flow_6_3_0_0: flow_6_3_0_0 - 1000 edge_6_3_0_0 <= 0
 inactive_no_flow_6_4_0_0: flow_6_4_0_0 - 1000 edge_6_4_0_0 <= 0
 inactive_no_flow_6_5_0_0: flow_6_5_0_0 - 1000 edge_6_5_0_0 <= 0
 inactive_no_flow_6_7_0_0: flow_6_7_0_0 - 1000 edge_6_7_0_0 <= 0
 inactive_no_flow_6_8_0_0: flow_6_8_0_0 - 1000 edge_6_8_0_0 <= 0
 inactive_no_flow_6_9_0_0: flow_6_9_0_0 - 1000 edge_6_9_0_0 <= 0
 inactive_no_flow_6_10_0_0: flow_6_10_0_0 - 1000 edge_6_10_0_0 <= 0
 inactive_no_flow_6_12_0_0: flow_6_12_0_0 - 1000 edge_6_12_0_0 <= 0
 inactive_no_flow_6_14_0_0: flow_6_14_0_0 - 1000 edge_6_14_0_0 <= 0
 inactive_no_flow_6_19_0_0: flow_6_19_0_0 - 1000 edge_6_19_0_0 <= 0
 inactive_no_flow_7_1_0_0: flow_7_1_0_0 - 1000 edge_7_1_0_0 <= 0
 inactive_no_flow_7_2_0_0: flow_7_2_0_0 - 1000 edge_7_2_0_0 <= 0
 inactive_no_flow_7_3_0_0: flow_7_3_0_0 - 1000 edge_7_3_0_0 <= 0
 inactive_no_flow_7_4_0_0: flow_7_4_0_0 - 1000 edge_7_4_0_0 <= 0
 inactive_no_flow_7_5_0_0: flow_7_5_0_0 - 1000 edge_7_5_0_0 <= 0
 inactive_no_flow_7_6_0_0: flow_7_6_0_0 - 1000 edge_7_6_0_0 <= 0
 inactive_no_flow_7_8_0_0: flow_7_8_0_0 - 1000 edge_7_8_0_0 <= 0
 inactive_no_flow_7_9_0_0: flow_7_9_0_0 - 1000 edge_7_9_0_0 <= 0
 inactive_no_flow_7_10_0_0: flow_7_10_0_0 - 1000 edge_7_10_0_0 <= 0
 inactive_no_flow_7_12_0_0: flow_7_12_0_0 - 1000 edge_7_12_0_0 <= 0
 inactive_no_flow_7_13_0_0: flow_7_13_0_0 - 1000 edge_7_13_0_0 <= 0
 inactive_no_flow_7_14_0_0: flow_7_14_0_0 - 1000 edge_7_14_0_0 <= 0
 inactive_no_flow_7_17_0_0: flow_7_17_0_0 - 1000 edge_7_17_0_0 <= 0
 inactive_no_flow_7_18_0_0: flow_7_18_0_0 - 1000 edge_7_18_0_0 <= 0
 inactive_no_flow_7_19_0_0: flow_7_19_0_0 - 1000 edge_7_19_0_0 <= 0
 inactive_no_flow_7_22_0_0: flow_7_22_0_0 - 1000 edge_7_22_0_0 <= 0
 inactive_no_flow_7_23_0_0: flow_7_23_0_0 - 1000 edge_7_23_0_0 <= 0
 inactive_no_flow_8_5_0_0: flow_8_5_0_0 - 1000 edge_8_5_0_0 <= 0
 inactive_no_flow_8_6_0_0: flow_8_6_0_0 - 1000 edge_8_6_0_0 <= 0
 inactive_no_flow_8_7_0_0: flow_8_7_0_0 - 1000 edge_8_7_0_0 <= 0
 inactive_no_flow_8_9_0_0: flow_8_9_0_0 - 1000 edge_8_9_0_0 <= 0
 inactive_no_flow_8_10_0_0: flow_8_10_0_0 - 1000 edge_8_10_0_0 <= 0
 inactive_no_flow_8_12_0_0: flow_8_12_0_0 - 1000 edge_8_12_0_0 <= 0
 inactive_no_flow_8_14_0_0: flow_8_14_0_0 - 1000 edge_8_14_0_0 <= 0
 inactive_no_flow_9_1_0_0: flow_9_1_0_0 - 1000 edge_9_1_0_0 <= 0
 inactive_no_flow_9_2_0_0: flow_9_2_0_0 - 1000 edge_9_2_0_0 <= 0
 inactive_no_flow_9_3_0_0: flow_9_3_0_0 - 1000 edge_9_3_0_0 <= 0
 inactive_no_flow_9_4_0_0: flow_9_4_0_0 - 1000 edge_9_4_0_0 <= 0
 inactive_no_flow_9_5_0_0: flow_9_5_0_0 - 1000 edge_9_5_0_0 <= 0
 inactive_no_flow_9_6_0_0: flow_9_6_0_0 - 1000 edge_9_6_0_0 <= 0
 inactive_no_flow_9_7_0_0: flow_9_7_0_0 - 1000 edge_9_7_0_0 <= 0
 inactive_no_flow_9_8_0_0: flow_9_8_0_0 - 1000 edge_9_8_0_0 <= 0
 inactive_no_flow_9_10_0_0: flow_9_10_0_0 - 1000 edge_9_10_0_0 <= 0
 inactive_no_flow_9_12_0_0: flow_9_12_0_0 - 1000 edge_9_12_0_0 <= 0
 inactive_no_flow_9_13_0_0: flow_9_13_0_0 - 1000 edge_9_13_0_0 <= 0
 inactive_no_flow_9_14_0_0: flow_9_14_0_0 - 1000 edge_9_14_0_0 <= 0
 inactive_no_flow_9_17_0_0: flow_9_17_0_0 - 1000 edge_9_17_0_0 <= 0
 inactive_no_flow_9_18_0_0: flow_9_18_0_0 - 1000 edge_9_18_0_0 <= 0
 inactive_no_flow_9_19_0_0: flow_9_19_0_0 - 1000 edge_9_19_0_0 <= 0
 inactive_no_flow_9_22_0_0: flow_9_22_0_0 - 1000 edge_9_22_0_0 <= 0
 inactive_no_flow_9_23_0_0: flow_9_23_0_0 - 1000 edge_9_23_0_0 <= 0
 inactive_no_flow_10_9_0_0: flow_10_9_0_0 - 1000 edge_10_9_0_0 <= 0
 inactive_no_flow_10_12_0_0: flow_10_12_0_0 - 1000 edge_10_12_0_0 <= 0
 inactive_no_flow_10_13_0_0: flow_10_13_0_0 - 1000 edge_10_13_0_0 <= 0
 inactive_no_flow_10_14_0_0: flow_10_14_0_0 - 1000 edge_10_14_0_0 <= 0
 inactive_no_flow_10_17_0_0: flow_10_17_0_0 - 1000 edge_10_17_0_0 <= 0
 inactive_no_flow_10_18_0_0: flow_10_18_0_0 - 1000 edge_10_18_0_0 <= 0
 inactive_no_flow_12_1_0_0: flow_12_1_0_0 - 1000 edge_12_1_0_0 <= 0
 inactive_no_flow_12_2_0_0: flow_12_2_0_0 - 1000 edge_12_2_0_0 <= 0
 inactive_no_flow_12_3_0_0: flow_12_3_0_0 - 1000 edge_12_3_0_0 <= 0
 inactive_no_flow_12_4_0_0: flow_12_4_0_0 - 1000 edge_12_4_0_0 <= 0
 inactive_no_flow_12_5_0_0: flow_12_5_0_0 - 1000 edge_12_5_0_0 <= 0
 inactive_no_flow_12_6_0_0: flow_12_6_0_0 - 1000 edge_12_6_0_0 <= 0
 inactive_no_flow_12_7_0_0: flow_12_7_0_0 - 1000 edge_12_7_0_0 <= 0
 inactive_no_flow_12_8_0_0: flow_12_8_0_0 - 1000 edge_12_8_0_0 <= 0
 inactive_no_flow_12_9_0_0: flow_12_9_0_0 - 1000 edge_12_9_0_0 <= 0
 inactive_no_flow_12_10_0_0: flow_12_10_0_0 - 1000 edge_12_10_0_0 <= 0
 inactive_no_flow_12_13_0_0: flow_12_13_0_0 - 1000 edge_12_13_0_0 <= 0
 inactive_no_flow_12_14_0_0: flow_12_14_0_0 - 1000 edge_12_14_0_0 <= 0
 inactive_no_flow_12_17_0_0: flow_12_17_0_0 - 1000 edge_12_17_0_0 <= 0
 inactive_no_flow_12_18_0_0: flow_12_18_0_0 - 1000 edge_12_18_0_0 <= 0
 inactive_no_flow_12_19_0_0: flow_12_19_0_0 - 1000 edge_12_19_0_0 <= 0
 inactive_no_flow_12_20_0_0: flow_12_20_0_0 - 1000 edge_12_20_0_0 <= 0
 inactive_no_flow_12_21_0_0: flow_12_21_0_0 - 1000 edge_12_21_0_0 <= 0
 inactive_no_flow_12_22_0_0: flow_12_22_0_0 - 1000 edge_12_22_0_0 <= 0
 inactive_no_flow_12_23_0_0: flow_12_23_0_0 - 1000 edge_12_23_0_0 <= 0
 inactive_no_flow_13_10_0_0: flow_13_10_0_0 - 1000 edge_13_10_0_0 <= 0
 inactive_no_flow_13_14_0_0: flow_13_14_0_0 - 1000 edge_13_14_0_0 <= 0
 inactive_no_flow_13_17_0_0: flow_13_17_0_0 - 1000 edge_13_17_0_0 <= 0
 inactive_no_flow_13_19_0_0: flow_13_19_0_0 - 1000 edge_13_19_0_0 <= 0
 inactive_no_flow_13_20_0_0: flow_13_20_0_0 - 1000 edge_13_20_0_0 <= 0
 inactive_no_flow_13_22_0_0: flow_13_22_0_0 - 1000 edge_13_22_0_0 <= 0
 inactive_no_flow_14_1_0_0: flow_14_1_0_0 - 1000 edge_14_1_0_0 <= 0
 inactive_no_flow_14_3_0_0: flow_14_3_0_0 - 1000 edge_14_3_0_0 <= 0
 inactive_no_flow_14_4_0_0: flow_14_4_0_0 - 1000 edge_14_4_0_0 <= 0
 inactive_no_flow_14_5_0_0: flow_14_5_0_0 - 1000 edge_14_5_0_0 <= 0
 inactive_no_flow_14_6_0_0: flow_14_6_0_0 - 1000 edge_14_6_0_0 <= 0
 inactive_no_flow_14_7_0_0: flow_14_7_0_0 - 1000 edge_14_7_0_0 <= 0
 inactive_no_flow_14_8_0_0: flow_14_8_0_0 - 1000 edge_14_8_0_0 <= 0
 inactive_no_flow_14_9_0_0: flow_14_9_0_0 - 1000 edge_14_9_0_0 <= 0
 inactive_no_flow_14_10_0_0: flow_14_10_0_0 - 1000 edge_14_10_0_0 <= 0
 inactive_no_flow_14_12_0_0: flow_14_12_0_0 - 1000 edge_14_12_0_0 <= 0
 inactive_no_flow_14_13_0_0: flow_14_13_0_0 - 1000 edge_14_13_0_0 <= 0
 inactive_no_flow_14_17_0_0: flow_14_17_0_0 - 1000 edge_14_17_0_0 <= 0
 inactive_no_flow_14_18_0_0: flow_14_18_0_0 - 1000 edge_14_18_0_0 <= 0
 inactive_no_flow_14_19_0_0: flow_14_19_0_0 - 1000 edge_14_19_0_0 <= 0
 inactive_no_flow_14_20_0_0: flow_14_20_0_0 - 1000 edge_14_20_0_0 <= 0
 inactive_no_flow_14_22_0_0: flow_14_22_0_0 - 1000 edge_14_22_0_0 <= 0
 inactive_no_flow_14_23_0_0: flow_14_23_0_0 - 1000 edge_14_23_0_0 <= 0
 inactive_no_flow_17_14_0_0: flow_17_14_0_0 - 1000 edge_17_14_0_0 <= 0
 inactive_no_flow_17_19_0_0: flow_17_19_0_0 - 1000 edge_17_19_0_0 <= 0
 inactive_no_flow_17_23_0_0: flow_17_23_0_0 - 1000 edge_17_23_0_0 <= 0
 inactive_no_flow_18_19_0_0: flow_18_19_0_0 - 1000 edge_18_19_0_0 <= 0
 inactive_no_flow_18_22_0_0: flow_18_22_0_0 - 1000 edge_18_22_0_0 <= 0
 inactive_no_flow_19_1_0_0: flow_19_1_0_0 - 1000 edge_19_1_0_0 <= 0
 inactive_no_flow_19_3_0_0: flow_19_3_0_0 - 1000 edge_19_3_0_0 <= 0
 inactive_no_flow_19_4_0_0: flow_19_4_0_0 - 1000 edge_19_4_0_0 <= 0
 inactive_no_flow_19_5_0_0: flow_19_5_0_0 - 1000 edge_19_5_0_0 <= 0
 inactive_no_flow_19_6_0_0: flow_19_6_0_0 - 1000 edge_19_6_0_0 <= 0
 inactive_no_flow_19_7_0_0: flow_19_7_0_0 - 1000 edge_19_7_0_0 <= 0
 inactive_no_flow_19_9_0_0: flow_19_9_0_0 - 1000 edge_19_9_0_0 <= 0
 inactive_no_flow_19_10_0_0: flow_19_10_0_0 - 1000 edge_19_10_0_0 <= 0
 inactive_no_flow_19_12_0_0: flow_19_12_0_0 - 1000 edge_19_12_0_0 <= 0
 inactive_no_flow_19_13_0_0: flow_19_13_0_0 - 1000 edge_19_13_0_0 <= 0
 inactive_no_flow_19_14_0_0: flow_19_14_0_0 - 1000 edge_19_14_0_0 <= 0
 inactive_no_flow_19_17_0_0: flow_19_17_0_0 - 1000 edge_19_17_0_0 <= 0
 inactive_no_flow_19_18_0_0: flow_19_18_0_0 - 1000 edge_19_18_0_0 <= 0
 inactive_no_flow_19_20_0_0: flow_19_20_0_0 - 1000 edge_19_20_0_0 <= 0
 inactive_no_flow_19_21_0_0: flow_19_21_0_0 - 1000 edge_19_21_0_0 <= 0
 inactive_no_flow_19_22_0_0: flow_19_22_0_0 - 1000 edge_19_22_0_0 <= 0
 inactive_no_flow_19_23_0_0: flow_19_23_0_0 - 1000 edge_19_23_0_0 <= 0
 inactive_no_flow_20_22_0_0: flow_20_22_0_0 - 1000 edge_20_22_0_0 <= 0
 inactive_no_flow_20_23_0_0: flow_20_23_0_0 - 1000 edge_20_23_0_0 <= 0
 inactive_no_flow_21_19_0_0: flow_21_19_0_0 - 1000 edge_21_19_0_0 <= 0
 inactive_no_flow_21_20_0_0: flow_21_20_0_0 - 1000 edge_21_20_0_0 <= 0
 inactive_no_flow_22_1_0_0: flow_22_1_0_0 - 1000 edge_22_1_0_0 <= 0
 inactive_no_flow_22_3_0_0: flow_22_3_0_0 - 1000 edge_22_3_0_0 <= 0
 inactive_no_flow_22_4_0_0: flow_22_4_0_0 - 1000 edge_22_4_0_0 <= 0
 inactive_no_flow_22_5_0_0: flow_22_5_0_0 - 1000 edge_22_5_0_0 <= 0
 inactive_no_flow_22_6_0_0: flow_22_6_0_0 - 1000 edge_22_6_0_0 <= 0
 inactive_no_flow_22_7_0_0: flow_22_7_0_0 - 1000 edge_22_7_0_0 <= 0
 inactive_no_flow_22_8_0_0: flow_22_8_0_0 - 1000 edge_22_8_0_0 <= 0
 inactive_no_flow_22_9_0_0: flow_22_9_0_0 - 1000 edge_22_9_0_0 <= 0
 inactive_no_flow_22_10_0_0: flow_22_10_0_0 - 1000 edge_22_10_0_0 <= 0
 inactive_no_flow_22_12_0_0: flow_22_12_0_0 - 1000 edge_22_12_0_0 <= 0
 inactive_no_flow_22_13_0_0: flow_22_13_0_0 - 1000 edge_22_13_0_0 <= 0
 inactive_no_flow_22_14_0_0: flow_22_14_0_0 - 1000 edge_22_14_0_0 <= 0
 inactive_no_flow_22_17_0_0: flow_22_17_0_0 - 1000 edge_22_17_0_0 <= 0
 inactive_no_flow_22_18_0_0: flow_22_18_0_0 - 1000 edge_22_18_0_0 <= 0
 inactive_no_flow_22_19_0_0: flow_22_19_0_0 - 1000 edge_22_19_0_0 <= 0
 inactive_no_flow_22_20_0_0: flow_22_20_0_0 - 1000 edge_22_20_0_0 <= 0
 inactive_no_flow_22_21_0_0: flow_22_21_0_0 - 1000 edge_22_21_0_0 <= 0
 inactive_no_flow_22_23_0_0: flow_22_23_0_0 - 1000 edge_22_23_0_0 <= 0
Bounds
Binaries
 edge_0_1_0_0 edge_0_3_0_0 edge_0_4_0_0 edge_0_5_0_0 edge_0_7_0_0
 edge_0_9_0_0 edge_0_12_0_0 edge_0_14_0_0 edge_0_19_0_0 edge_0_22_0_0
 edge_1_2_0_0 edge_1_3_0_0 edge_1_4_0_0 edge_1_5_0_0 edge_1_7_0_0
 edge_1_9_0_0 edge_1_10_0_0 edge_1_17_0_0 edge_1_22_0_0 edge_2_1_0_0
 edge_2_4_0_0 edge_2_7_0_0 edge_3_1_0_0 edge_3_2_0_0 edge_3_4_0_0
 edge_3_5_0_0 edge_3_6_0_0 edge_3_7_0_0 edge_3_8_0_0 edge_3_9_0_0
 edge_3_10_0_0 edge_3_12_0_0 edge_3_14_0_0 edge_3_17_0_0 edge_3_18_0_0
 edge_3_19_0_0 edge_3_22_0_0 edge_3_23_0_0 edge_4_1_0_0 edge_4_2_0_0
 edge_4_3_0_0 edge_4_5_0_0 edge_4_6_0_0 edge_4_7_0_0 edge_4_8_0_0
 edge_4_9_0_0 edge_4_10_0_0 edge_4_12_0_0 edge_4_13_0_0 edge_4_14_0_0
 edge_4_17_0_0 edge_4_18_0_0 edge_4_19_0_0 edge_4_20_0_0 edge_4_22_0_0
 edge_4_23_0_0 edge_5_1_0_0 edge_5_3_0_0 edge_5_4_0_0 edge_5_6_0_0
 edge_5_7_0_0 edge_5_9_0_0 edge_5_10_0_0 edge_5_12_0_0 edge_5_13_0_0
 edge_5_14_0_0 edge_5_17_0_0 edge_5_18_0_0 edge_5_19_0_0 edge_5_22_0_0
 edge_5_23_0_0 edge_6_1_0_0 edge_6_3_0_0 edge_6_4_0_0 edge_6_5_0_0
 edge_6_7_0_0 edge_6_8_0_0 edge_6_9_0_0 edge_6_10_0_0 edge_6_12_0_0
 edge_6_14_0_0 edge_6_19_0_0 edge_7_1_0_0 edge_7_2_0_0 edge_7_3_0_0
 edge_7_4_0_0 edge_7_5_0_0 edge_7_6_0_0 edge_7_8_0_0 edge_7_9_0_0
 edge_7_10_0_0 edge_7_12_0_0 edge_7_13_0_0 edge_7_14_0_0 edge_7_17_0_0
 edge_7_18_0_0 edge_7_19_0_0 edge_7_22_0_0 edge_7_23_0_0 edge_8_5_0_0
 edge_8_6_0_0 edge_8_7_0_0 edge_8_9_0_0 edge_8_10_0_0 edge_8_12_0_0
 edge_8_14_0_0 edge_9_1_0_0 edge_9_2_0_0 edge_9_3_0_0 edge_9_4_0_0
 edge_9_5_0_0 edge_9_6_0_0 edge_9_7_0_0 edge_9_8_0_0 edge_9_10_0_0
 edge_9_12_0_0 edge_9_13_0_0 edge_9_14_0_0 edge_9_17_0_0 edge_9_18_0_0
 edge_9_19_0_0 edge_9_22_0_0 edge_9_23_0_0 edge_10_9_0_0 edge_10_12_0_0
 edge_10_13_0_0 edge_10_14_0_0 edge_10_17_0_0 edge_10_18_0_0 edge_12_1_0_0
 edge_12_2_0_0 edge_12_3_0_0 edge_12_4_0_0 edge_12_5_0_0 edge_12_6_0_0
 edge_12_7_0_0 edge_12_8_0_0 edge_12_9_0_0 edge_12_10_0_0 edge_12_13_0_0
 edge_12_14_0_0 edge_12_17_0_0 edge_12_18_0_0 edge_12_19_0_0 edge_12_20_0_0
 edge_12_21_0_0 edge_12_22_0_0 edge_12_23_0_0 edge_13_10_0_0 edge_13_14_0_0
 edge_13_17_0_0 edge_13_19_0_0 edge_13_20_0_0 edge_13_22_0_0 edge_14_1_0_0
 edge_14_3_0_0 edge_14_4_0_0 edge_14_5_0_0 edge_14_6_0_0 edge_14_7_0_0
 edge_14_8_0_0 edge_14_9_0_0 edge_14_10_0_0 edge_14_12_0_0 edge_14_13_0_0
 edge_14_17_0_0 edge_14_18_0_0 edge_14_19_0_0 edge_14_20_0_0 edge_14_22_0_0
 edge_14_23_0_0 edge_17_14_0_0 edge_17_19_0_0 edge_17_23_0_0 edge_18_19_0_0
 edge_18_22_0_0 edge_19_1_0_0 edge_19_3_0_0 edge_19_4_0_0 edge_19_5_0_0
 edge_19_6_0_0 edge_19_7_0_0 edge_19_9_0_0 edge_19_10_0_0 edge_19_12_0_0
 edge_19_13_0_0 edge_19_14_0_0 edge_19_17_0_0 edge_19_18_0_0 edge_19_20_0_0
 edge_19_21_0_0 edge_19_22_0_0 edge_19_23_0_0 edge_20_22_0_0 edge_20_23_0_0
 edge_21_19_0_0 edge_21_20_0_0 edge_22_1_0_0 edge_22_3_0_0 edge_22_4_0_0
 edge_22_5_0_0 edge_22_6_0_0 edge_22_7_0_0 edge_22_8_0_0 edge_22_9_0_0
 edge_22_10_0_0 edge_22_12_0_0 edge_22_13_0_0 edge_22_14_0_0 edge_22_17_0_0
 edge_22_18_0_0 edge_22_19_0_0 edge_22_20_0_0 edge_22_21_0_0 edge_22_23_0_0
End
